NAME: tsp10_24
COMMENT: 10-tsp problem (Padberg/Rinaldi)
TYPE: TSP
DIMENSION: 10
EDGE_WEIGHT_TYPE : EUC_2D
NODE_COORD_SECTION
1 37 13
2 20 18
3 25 35
4 24 18
5 21 1
6 15 2
7 33 30
8 3 28
9 38 25
10 1 23
